p cnf 888 2435
-1 10 0 
1 659 0 
-8 -9 0 
-97 -98 -104 0 
-97 98 104 0 
-98 -99 -100 0 
-98 99 100 0 
-100 -101 -103 0 
-100 101 103 0 
-101 -102 0 
-103 88 0 
-103 90 0 
-104 105 108 0 
-105 106 107 0 
-106 86 0 
-106 87 0 
-107 87 0 
-107 91 0 
-108 86 0 
-108 91 0 
-109 -110 0 
-110 -111 -117 0 
-110 111 117 0 
-111 -112 -113 0 
-111 112 113 0 
-113 -114 -116 0 
-113 114 116 0 
-114 -115 0 
-116 101 0 
-116 103 0 
-117 118 121 0 
-118 119 120 0 
-119 99 0 
-119 100 0 
-120 100 0 
-120 104 0 
-121 99 0 
-121 104 0 
-122 -123 224 0 
-122 123 0 
-123 124 0 
-123 211 0 
-124 125 0 
-124 198 0 
-125 126 0 
-125 185 0 
-126 127 0 
-126 172 0 
-10 -11 20 0 
-10 11 0 
-127 128 0 
-127 159 0 
-128 129 0 
-128 146 0 
-129 130 0 
-129 137 0 
-130 -131 0 
-131 132 0 
-132 -133 -134 0 
-132 133 134 0 
-134 -135 0 
-135 -136 0 
-11 -12 0 
-137 -138 0 
-138 -139 -145 0 
-138 139 145 0 
-139 -140 -141 0 
-139 140 141 0 
-141 -142 -144 0 
-141 142 144 0 
-142 -143 0 
-144 135 0 
-145 133 0 
-145 134 0 
-146 -147 0 
-12 13 0 
-147 -148 -154 0 
-147 148 154 0 
-148 -149 -150 0 
-148 149 150 0 
-150 -151 -153 0 
-150 151 153 0 
-151 -152 0 
-153 142 0 
-153 144 0 
-154 155 158 0 
-155 156 157 0 
-156 140 0 
-156 141 0 
-13 -14 -17 0 
-13 14 17 0 
-157 141 0 
-157 145 0 
-158 140 0 
-158 145 0 
-159 -160 0 
-160 -161 -167 0 
-160 161 167 0 
-161 -162 -163 0 
-161 162 163 0 
-163 -164 -166 0 
-163 164 166 0 
-164 -165 0 
-166 151 0 
-166 153 0 
-14 -15 0 
-167 168 171 0 
-168 169 170 0 
-169 149 0 
-169 150 0 
-170 150 0 
-170 154 0 
-171 149 0 
-171 154 0 
-172 -173 0 
-173 -174 -180 0 
-173 174 180 0 
-174 -175 -176 0 
-174 175 176 0 
-176 -177 -179 0 
-176 177 179 0 
-15 -16 0 
-177 -178 0 
-179 164 0 
-179 166 0 
-180 181 184 0 
-181 182 183 0 
-182 162 0 
-182 163 0 
-183 163 0 
-183 167 0 
-184 162 0 
-184 167 0 
-185 -186 0 
-186 -187 -193 0 
-186 187 193 0 
-187 -188 -189 0 
-187 188 189 0 
-189 -190 -192 0 
-189 190 192 0 
-190 -191 0 
-192 177 0 
-192 179 0 
-193 194 197 0 
-194 195 196 0 
-195 175 0 
-195 176 0 
-196 176 0 
-196 180 0 
-1 -2 0 
-17 -18 0 
-197 175 0 
-197 180 0 
-198 -199 0 
-199 -200 -206 0 
-199 200 206 0 
-200 -201 -202 0 
-200 201 202 0 
-202 -203 -205 0 
-202 203 205 0 
-203 -204 0 
-205 190 0 
-205 192 0 
-206 207 210 0 
-18 -19 0 
-207 208 209 0 
-208 188 0 
-208 189 0 
-209 189 0 
-209 193 0 
-210 188 0 
-210 193 0 
-211 -212 0 
-212 -213 -219 0 
-212 213 219 0 
-213 -214 -215 0 
-213 214 215 0 
-215 -216 -218 0 
-215 216 218 0 
-216 -217 0 
-218 203 0 
-218 205 0 
-219 220 223 0 
-220 221 222 0 
-221 201 0 
-221 202 0 
-222 202 0 
-222 206 0 
-223 201 0 
-223 206 0 
-224 -225 226 0 
-224 225 623 0 
-225 -17 0 
-226 -227 233 0 
-226 227 428 0 
-20 -21 122 0 
-20 21 0 
-227 -228 0 
-228 229 0 
-229 -7 -230 0 
-229 7 230 0 
-230 -231 0 
-231 -232 0 
-233 -234 240 0 
-233 234 0 
-234 -235 0 
-235 236 0 
-236 -17 -237 0 
-236 17 237 0 
-21 109 0 
-21 22 0 
-237 -238 0 
-238 -239 0 
-240 -241 334 0 
-240 241 0 
-241 242 0 
-241 322 0 
-242 243 0 
-242 310 0 
-243 244 0 
-243 298 0 
-244 245 0 
-244 286 0 
-245 246 0 
-245 274 0 
-246 247 0 
-246 262 0 
-22 23 0 
-22 96 0 
-247 248 0 
-247 254 0 
-248 -249 0 
-249 250 0 
-250 -34 -251 0 
-250 34 251 0 
-251 -252 0 
-252 -253 0 
-254 -255 0 
-255 -256 -261 0 
-255 256 261 0 
-256 -41 -257 0 
-256 41 257 0 
-23 24 0 
-23 83 0 
-257 -258 -260 0 
-257 258 260 0 
-258 -259 0 
-260 252 0 
-261 251 0 
-261 34 0 
-262 -263 0 
-263 -264 -269 0 
-263 264 269 0 
-264 -50 -265 0 
-264 50 265 0 
-265 -266 -268 0 
-265 266 268 0 
-266 -267 0 
-24 25 0 
-24 70 0 
-268 258 0 
-268 260 0 
-269 270 273 0 
-270 271 272 0 
-271 257 0 
-271 41 0 
-272 257 0 
-272 261 0 
-273 261 0 
-273 41 0 
-274 -275 0 
-275 -276 -281 0 
-275 276 281 0 
-276 -63 -277 0 
-276 63 277 0 
-25 26 0 
-25 57 0 
-277 -278 -280 0 
-277 278 280 0 
-278 -279 0 
-280 266 0 
-280 268 0 
-281 282 285 0 
-282 283 284 0 
-283 265 0 
-283 50 0 
-284 265 0 
-284 269 0 
-285 269 0 
-285 50 0 
-286 -287 0 
-26 27 0 
-26 44 0 
-287 -288 -293 0 
-287 288 293 0 
-288 -76 -289 0 
-288 76 289 0 
-289 -290 -292 0 
-289 290 292 0 
-290 -291 0 
-292 278 0 
-292 280 0 
-293 294 297 0 
-294 295 296 0 
-295 277 0 
-295 63 0 
-296 277 0 
-296 281 0 
-2 3 0 
-27 28 0 
-27 35 0 
-297 281 0 
-297 63 0 
-298 -299 0 
-299 -300 -305 0 
-299 300 305 0 
-300 -89 -301 0 
-300 89 301 0 
-301 -302 -304 0 
-301 302 304 0 
-302 -303 0 
-304 290 0 
-304 292 0 
-305 306 309 0 
-306 307 308 0 
-28 -29 0 
-307 289 0 
-307 76 0 
-308 289 0 
-308 293 0 
-309 293 0 
-309 76 0 
-310 -311 0 
-311 -312 -317 0 
-311 312 317 0 
-312 -102 -313 0 
-312 102 313 0 
-313 -314 -316 0 
-313 314 316 0 
-314 -315 0 
-316 302 0 
-316 304 0 
-29 30 0 
-317 318 321 0 
-318 319 320 0 
-319 301 0 
-319 89 0 
-320 301 0 
-320 305 0 
-321 305 0 
-321 89 0 
-322 -323 0 
-323 -324 -329 0 
-323 324 329 0 
-324 -115 -325 0 
-324 115 325 0 
-325 -326 -328 0 
-325 326 328 0 
-326 -327 0 
-30 -31 -32 0 
-30 31 32 0 
-328 314 0 
-328 316 0 
-329 330 333 0 
-330 331 332 0 
-331 102 0 
-331 313 0 
-332 313 0 
-332 317 0 
-333 102 0 
-333 317 0 
-334 335 0 
-335 336 0 
-335 416 0 
-336 337 0 
-336 404 0 
-337 338 0 
-337 392 0 
-338 339 0 
-338 380 0 
-339 340 0 
-339 368 0 
-340 341 0 
-340 356 0 
-341 342 0 
-341 348 0 
-342 -343 0 
-343 344 0 
-344 -136 -345 0 
-344 136 345 0 
-345 -346 0 
-346 -347 0 
-32 -33 0 
-348 -349 0 
-349 -350 -355 0 
-349 350 355 0 
-350 -143 -351 0 
-350 143 351 0 
-351 -352 -354 0 
-351 352 354 0 
-352 -353 0 
-354 346 0 
-355 136 0 
-355 345 0 
-356 -357 0 
-33 -34 0 
-357 -358 -363 0 
-357 358 363 0 
-358 -152 -359 0 
-358 152 359 0 
-359 -360 -362 0 
-359 360 362 0 
-360 -361 0 
-362 352 0 
-362 354 0 
-363 364 367 0 
-364 365 366 0 
-365 143 0 
-365 351 0 
-366 351 0 
-366 355 0 
-367 143 0 
-367 355 0 
-368 -369 0 
-369 -370 -375 0 
-369 370 375 0 
-370 -165 -371 0 
-370 165 371 0 
-371 -372 -374 0 
-371 372 374 0 
-372 -373 0 
-374 360 0 
-374 362 0 
-375 376 379 0 
-376 377 378 0 
-35 -36 0 
-377 152 0 
-377 359 0 
-378 359 0 
-378 363 0 
-379 152 0 
-379 363 0 
-380 -381 0 
-381 -382 -387 0 
-381 382 387 0 
-382 -178 -383 0 
-382 178 383 0 
-383 -384 -386 0 
-383 384 386 0 
-384 -385 0 
-386 372 0 
-386 374 0 
-36 -37 -43 0 
-36 37 43 0 
-387 388 391 0 
-388 389 390 0 
-389 165 0 
-389 371 0 
-390 371 0 
-390 375 0 
-391 165 0 
-391 375 0 
-392 -393 0 
-393 -394 -399 0 
-393 394 399 0 
-394 -191 -395 0 
-394 191 395 0 
-395 -396 -398 0 
-395 396 398 0 
-396 -397 0 
-3 -4 -7 0 
-3 4 7 0 
-37 -38 -39 0 
-37 38 39 0 
-398 384 0 
-398 386 0 
-399 400 403 0 
-400 401 402 0 
-401 178 0 
-401 383 0 
-402 383 0 
-402 387 0 
-403 178 0 
-403 387 0 
-404 -405 0 
-405 -406 -411 0 
-405 406 411 0 
-406 -204 -407 0 
-406 204 407 0 
-407 -408 -410 0 
-407 408 410 0 
-408 -409 0 
-410 396 0 
-410 398 0 
-411 412 415 0 
-412 413 414 0 
-413 191 0 
-413 395 0 
-414 395 0 
-414 399 0 
-415 191 0 
-415 399 0 
-416 -417 0 
-39 -40 -42 0 
-39 40 42 0 
-417 -418 -423 0 
-417 418 423 0 
-418 -217 -419 0 
-418 217 419 0 
-419 -420 -422 0 
-419 420 422 0 
-420 -421 0 
-422 408 0 
-422 410 0 
-423 424 427 0 
-424 425 426 0 
-425 204 0 
-425 407 0 
-426 407 0 
-426 411 0 
-40 -41 0 
-427 204 0 
-427 411 0 
-428 -429 430 0 
-428 429 233 0 
-429 230 0 
-430 -431 446 0 
-430 431 608 0 
-431 432 0 
-431 445 0 
-432 433 0 
-432 444 0 
-433 434 0 
-433 443 0 
-434 435 0 
-434 442 0 
-435 436 0 
-435 441 0 
-436 437 0 
-436 440 0 
-437 438 0 
-437 439 0 
-438 -34 0 
-439 -41 0 
-440 -50 0 
-441 -63 0 
-442 -76 0 
-443 -89 0 
-444 -102 0 
-445 -115 0 
-446 -447 448 0 
-446 447 0 
-42 33 0 
-447 237 0 
-448 -449 464 0 
-448 449 544 0 
-449 450 0 
-449 463 0 
-450 451 0 
-450 462 0 
-451 452 0 
-451 461 0 
-452 453 0 
-452 460 0 
-453 454 0 
-453 459 0 
-454 455 0 
-454 458 0 
-455 456 0 
-455 457 0 
-456 34 0 
-43 31 0 
-43 32 0 
-457 41 0 
-458 50 0 
-459 63 0 
-460 76 0 
-461 89 0 
-462 102 0 
-463 115 0 
-464 -465 535 0 
-464 465 0 
-465 466 0 
-465 526 0 
-466 467 0 
-466 517 0 
-44 -45 0 
-467 468 0 
-467 508 0 
-468 469 0 
-468 499 0 
-469 470 0 
-469 490 0 
-470 471 0 
-470 481 0 
-471 472 0 
-471 476 0 
-472 -473 0 
-473 474 0 
-474 -475 -251 0 
-474 475 251 0 
-476 -477 0 
-45 -46 -52 0 
-45 46 52 0 
-477 -478 -480 0 
-477 478 480 0 
-478 -479 -257 0 
-478 479 257 0 
-480 251 0 
-480 475 0 
-481 -482 0 
-482 -483 -485 0 
-482 483 485 0 
-483 -484 -265 0 
-483 484 265 0 
-485 486 489 0 
-486 487 488 0 
-46 -47 -48 0 
-46 47 48 0 
-487 257 0 
-487 479 0 
-488 257 0 
-488 480 0 
-489 479 0 
-489 480 0 
-490 -491 0 
-491 -492 -494 0 
-491 492 494 0 
-492 -493 -277 0 
-492 493 277 0 
-494 495 498 0 
-495 496 497 0 
-496 265 0 
-496 484 0 
-4 -5 0 
-497 265 0 
-497 485 0 
-498 484 0 
-498 485 0 
-499 -500 0 
-500 -501 -503 0 
-500 501 503 0 
-501 -502 -289 0 
-501 502 289 0 
-503 504 507 0 
-504 505 506 0 
-505 277 0 
-505 493 0 
-506 277 0 
-506 494 0 
-48 -49 -51 0 
-48 49 51 0 
-507 493 0 
-507 494 0 
-508 -509 0 
-509 -510 -512 0 
-509 510 512 0 
-510 -511 -301 0 
-510 511 301 0 
-512 513 516 0 
-513 514 515 0 
-514 289 0 
-514 502 0 
-515 289 0 
-515 503 0 
-516 502 0 
-516 503 0 
-49 -50 0 
-517 -518 0 
-518 -519 -521 0 
-518 519 521 0 
-519 -520 -313 0 
-519 520 313 0 
-521 522 525 0 
-522 523 524 0 
-523 301 0 
-523 511 0 
-524 301 0 
-524 512 0 
-525 511 0 
-525 512 0 
-526 -527 0 
-527 -528 -530 0 
-527 528 530 0 
-528 -529 -325 0 
-528 529 325 0 
-530 531 534 0 
-531 532 533 0 
-532 313 0 
-532 520 0 
-533 313 0 
-533 521 0 
-534 520 0 
-534 521 0 
-535 536 0 
-536 416 0 
-536 537 0 
-51 40 0 
-51 42 0 
-537 404 0 
-537 538 0 
-538 392 0 
-538 539 0 
-539 380 0 
-539 540 0 
-540 368 0 
-540 541 0 
-541 356 0 
-541 542 0 
-542 348 0 
-542 543 0 
-543 343 0 
-544 -465 545 0 
-544 465 0 
-545 546 0 
-546 547 0 
-546 600 0 
-52 53 56 0 
-547 548 0 
-547 592 0 
-548 549 0 
-548 584 0 
-549 550 0 
-549 576 0 
-550 551 0 
-550 568 0 
-551 552 0 
-551 560 0 
-552 553 0 
-552 556 0 
-553 554 0 
-554 555 0 
-555 -34 -345 0 
-555 34 345 0 
-556 557 0 
-53 54 55 0 
-557 -558 -559 0 
-557 558 559 0 
-558 -41 -351 0 
-558 41 351 0 
-559 345 0 
-559 34 0 
-560 561 0 
-561 -562 -563 0 
-561 562 563 0 
-562 -50 -359 0 
-562 50 359 0 
-563 564 567 0 
-564 565 566 0 
-565 351 0 
-565 41 0 
-566 351 0 
-566 559 0 
-54 38 0 
-54 39 0 
-567 41 0 
-567 559 0 
-568 569 0 
-569 -570 -571 0 
-569 570 571 0 
-570 -63 -371 0 
-570 63 371 0 
-571 572 575 0 
-572 573 574 0 
-573 359 0 
-573 50 0 
-574 359 0 
-574 563 0 
-575 50 0 
-575 563 0 
-576 577 0 
-55 39 0 
-55 43 0 
-577 -578 -579 0 
-577 578 579 0 
-578 -76 -383 0 
-578 76 383 0 
-579 580 583 0 
-580 581 582 0 
-581 371 0 
-581 63 0 
-582 371 0 
-582 571 0 
-583 571 0 
-583 63 0 
-584 585 0 
-585 -586 -587 0 
-585 586 587 0 
-586 -89 -395 0 
-586 89 395 0 
-56 38 0 
-56 43 0 
-587 588 591 0 
-588 589 590 0 
-589 383 0 
-589 76 0 
-590 383 0 
-590 579 0 
-591 579 0 
-591 76 0 
-592 593 0 
-593 -594 -595 0 
-593 594 595 0 
-594 -102 -407 0 
-594 102 407 0 
-595 596 599 0 
-596 597 598 0 
-5 -6 0 
-57 -58 0 
-597 395 0 
-597 89 0 
-598 395 0 
-598 587 0 
-599 587 0 
-599 89 0 
-600 601 0 
-601 -602 -603 0 
-601 602 603 0 
-602 -115 -419 0 
-602 115 419 0 
-603 604 607 0 
-604 605 606 0 
-605 102 0 
-605 407 0 
-606 407 0 
-606 595 0 
-58 -59 -65 0 
-58 59 65 0 
-607 102 0 
-607 595 0 
-608 -449 609 0 
-608 449 621 0 
-609 -610 618 0 
-609 610 0 
-610 322 0 
-610 611 0 
-611 310 0 
-611 612 0 
-612 298 0 
-612 613 0 
-613 286 0 
-613 614 0 
-614 274 0 
-614 615 0 
-615 262 0 
-615 616 0 
-616 254 0 
-616 617 0 
-59 -60 -61 0 
-59 60 61 0 
-617 249 0 
-618 -536 619 0 
-618 536 0 
-619 620 0 
-620 -237 0 
-621 -610 622 0 
-621 610 0 
-622 -546 619 0 
-622 546 0 
-623 -227 233 0 
-623 227 624 0 
-624 -429 625 0 
-624 429 233 0 
-625 -447 626 0 
-625 447 658 0 
-626 -449 627 0 
-626 449 643 0 
-627 -465 628 0 
-627 465 0 
-628 -629 619 0 
-628 629 0 
-629 630 0 
-629 642 0 
-630 631 0 
-630 641 0 
-631 632 0 
-631 640 0 
-632 633 0 
-632 639 0 
-633 634 0 
-633 638 0 
-634 635 0 
-634 637 0 
-635 543 0 
-635 636 0 
-636 349 0 
-61 -62 -64 0 
-61 62 64 0 
-637 357 0 
-638 369 0 
-639 381 0 
-640 393 0 
-641 405 0 
-642 417 0 
-643 -644 545 0 
-643 644 0 
-644 645 0 
-644 657 0 
-645 646 0 
-645 656 0 
-646 647 0 
-646 655 0 
-62 -63 0 
-647 648 0 
-647 654 0 
-648 649 0 
-648 653 0 
-649 650 0 
-649 652 0 
-650 617 0 
-650 651 0 
-651 255 0 
-652 263 0 
-653 275 0 
-654 287 0 
-655 299 0 
-656 311 0 
-657 323 0 
-658 -449 627 0 
-658 449 0 
-659 -660 661 0 
-659 660 10 0 
-660 7 0 
-661 -662 663 0 
-661 662 855 0 
-662 -14 0 
-663 -664 679 0 
-663 664 841 0 
-664 665 0 
-664 678 0 
-665 666 0 
-665 677 0 
-666 667 0 
-666 676 0 
-64 49 0 
-64 51 0 
-667 668 0 
-667 675 0 
-668 669 0 
-668 674 0 
-669 670 0 
-669 673 0 
-670 671 0 
-670 672 0 
-671 -31 0 
-672 -38 0 
-673 -47 0 
-674 -60 0 
-675 -73 0 
-676 -86 0 
-65 66 69 0 
-677 -99 0 
-678 -112 0 
-679 -680 681 0 
-679 680 0 
-680 17 0 
-681 -682 697 0 
-681 682 777 0 
-682 683 0 
-682 696 0 
-683 684 0 
-683 695 0 
-684 685 0 
-684 694 0 
-685 686 0 
-685 693 0 
-686 687 0 
-686 692 0 
-66 67 68 0 
-687 688 0 
-687 691 0 
-688 689 0 
-688 690 0 
-689 31 0 
-690 38 0 
-691 47 0 
-692 60 0 
-693 73 0 
-694 86 0 
-695 99 0 
-696 112 0 
-67 47 0 
-67 48 0 
-697 -698 768 0 
-697 698 0 
-698 699 0 
-698 759 0 
-699 700 0 
-699 750 0 
-700 701 0 
-700 741 0 
-701 702 0 
-701 732 0 
-702 703 0 
-702 723 0 
-703 704 0 
-703 714 0 
-704 705 0 
-704 709 0 
-705 -706 0 
-706 707 0 
-68 48 0 
-68 52 0 
-707 -708 -32 0 
-707 708 32 0 
-709 -710 0 
-710 -711 -713 0 
-710 711 713 0 
-711 -712 -39 0 
-711 712 39 0 
-713 32 0 
-713 708 0 
-714 -715 0 
-715 -716 -718 0 
-715 716 718 0 
-716 -717 -48 0 
-716 717 48 0 
-69 47 0 
-69 52 0 
-718 719 722 0 
-719 720 721 0 
-720 39 0 
-720 712 0 
-721 39 0 
-721 713 0 
-722 712 0 
-722 713 0 
-723 -724 0 
-724 -725 -727 0 
-724 725 727 0 
-725 -726 -61 0 
-725 726 61 0 
-70 -71 0 
-727 728 731 0 
-728 729 730 0 
-729 48 0 
-729 717 0 
-730 48 0 
-730 718 0 
-731 717 0 
-731 718 0 
-732 -733 0 
-733 -734 -736 0 
-733 734 736 0 
-734 -735 -74 0 
-734 735 74 0 
-736 737 740 0 
-71 -72 -78 0 
-71 72 78 0 
-737 738 739 0 
-738 61 0 
-738 726 0 
-739 61 0 
-739 727 0 
-740 726 0 
-740 727 0 
-741 -742 0 
-742 -743 -745 0 
-742 743 745 0 
-743 -744 -87 0 
-743 744 87 0 
-745 746 749 0 
-746 747 748 0 
-72 -73 -74 0 
-72 73 74 0 
-747 735 0 
-747 74 0 
-748 736 0 
-748 74 0 
-749 735 0 
-749 736 0 
-750 -751 0 
-751 -752 -754 0 
-751 752 754 0 
-752 -753 -100 0 
-752 753 100 0 
-754 755 758 0 
-755 756 757 0 
-756 744 0 
-756 87 0 
-757 745 0 
-757 87 0 
-758 744 0 
-758 745 0 
-759 -760 0 
-760 -761 -763 0 
-760 761 763 0 
-761 -762 -113 0 
-761 762 113 0 
-763 764 767 0 
-764 765 766 0 
-765 100 0 
-765 753 0 
-766 100 0 
-766 754 0 
-74 -75 -77 0 
-74 75 77 0 
-767 753 0 
-767 754 0 
-768 -769 224 0 
-768 769 0 
-769 211 0 
-769 770 0 
-770 198 0 
-770 771 0 
-771 185 0 
-771 772 0 
-772 172 0 
-772 773 0 
-773 159 0 
-773 774 0 
-774 146 0 
-774 775 0 
-775 137 0 
-775 776 0 
-776 131 0 
-75 -76 0 
-777 -698 778 0 
-777 698 0 
-778 -779 224 0 
-778 779 0 
-779 780 0 
-779 833 0 
-780 781 0 
-780 825 0 
-781 782 0 
-781 817 0 
-782 783 0 
-782 809 0 
-783 784 0 
-783 801 0 
-784 785 0 
-784 793 0 
-785 786 0 
-785 789 0 
-786 787 0 
-787 788 0 
-788 -31 -134 0 
-788 31 134 0 
-789 790 0 
-790 -791 -792 0 
-790 791 792 0 
-791 -38 -141 0 
-791 38 141 0 
-792 134 0 
-792 31 0 
-793 794 0 
-794 -795 -796 0 
-794 795 796 0 
-795 -47 -150 0 
-795 47 150 0 
-796 797 800 0 
-77 62 0 
-77 64 0 
-797 798 799 0 
-798 141 0 
-798 38 0 
-799 141 0 
-799 792 0 
-800 38 0 
-800 792 0 
-801 802 0 
-802 -803 -804 0 
-802 803 804 0 
-803 -60 -163 0 
-803 60 163 0 
-804 805 808 0 
-805 806 807 0 
-806 150 0 
-806 47 0 
-78 79 82 0 
-807 150 0 
-807 796 0 
-808 47 0 
-808 796 0 
-809 810 0 
-810 -811 -812 0 
-810 811 812 0 
-811 -73 -176 0 
-811 73 176 0 
-812 813 816 0 
-813 814 815 0 
-814 163 0 
-814 60 0 
-815 163 0 
-815 804 0 
-816 60 0 
-816 804 0 
-79 80 81 0 
-817 818 0 
-818 -819 -820 0 
-818 819 820 0 
-819 -86 -189 0 
-819 86 189 0 
-820 821 824 0 
-821 822 823 0 
-822 176 0 
-822 73 0 
-823 176 0 
-823 812 0 
-824 73 0 
-824 812 0 
-825 826 0 
-826 -827 -828 0 
-826 827 828 0 
-80 60 0 
-80 61 0 
-827 -99 -202 0 
-827 99 202 0 
-828 829 832 0 
-829 830 831 0 
-830 189 0 
-830 86 0 
-831 189 0 
-831 820 0 
-832 820 0 
-832 86 0 
-833 834 0 
-834 -835 -836 0 
-834 835 836 0 
-835 -112 -215 0 
-835 112 215 0 
-836 837 840 0 
-81 61 0 
-81 65 0 
-837 838 839 0 
-838 99 0 
-838 202 0 
-839 202 0 
-839 828 0 
-840 99 0 
-840 828 0 
-841 -682 842 0 
-841 682 853 0 
-842 -843 851 0 
-842 843 0 
-843 109 0 
-843 844 0 
-844 845 0 
-844 96 0 
-845 846 0 
-845 83 0 
-846 70 0 
-846 847 0 
-82 60 0 
-82 65 0 
-847 57 0 
-847 848 0 
-848 44 0 
-848 849 0 
-849 35 0 
-849 850 0 
-850 29 0 
-851 -769 852 0 
-851 769 0 
-852 -225 226 0 
-852 225 0 
-853 -843 854 0 
-853 843 0 
-854 -779 852 0 
-854 779 0 
-855 -680 856 0 
-855 680 888 0 
-856 -682 857 0 
-856 682 873 0 
-83 -84 0 
-857 -698 858 0 
-857 698 0 
-858 -859 852 0 
-858 859 0 
-859 860 0 
-859 872 0 
-860 861 0 
-860 871 0 
-861 862 0 
-861 870 0 
-862 863 0 
-862 869 0 
-863 864 0 
-863 868 0 
-864 865 0 
-864 867 0 
-865 776 0 
-865 866 0 
-866 138 0 
-84 -85 -91 0 
-84 85 91 0 
-867 147 0 
-868 160 0 
-869 173 0 
-870 186 0 
-871 199 0 
-872 212 0 
-873 -874 778 0 
-873 874 0 
-874 875 0 
-874 887 0 
-875 876 0 
-875 886 0 
-876 877 0 
-876 885 0 
-85 -86 -87 0 
-85 86 87 0 
-877 878 0 
-877 884 0 
-878 879 0 
-878 883 0 
-879 880 0 
-879 882 0 
-880 850 0 
-880 881 0 
-881 36 0 
-882 45 0 
-883 58 0 
-884 71 0 
-885 84 0 
-886 97 0 
-887 110 0 
-888 -682 857 0 
-888 682 0 
-7 -8 0 
-87 -88 -90 0 
-87 88 90 0 
-88 -89 0 
-90 75 0 
-90 77 0 
-91 92 95 0 
-92 93 94 0 
-93 73 0 
-93 74 0 
-94 74 0 
-94 78 0 
-95 73 0 
-95 78 0 
-96 -97 0 
8 9 0 
97 -98 104 0 
97 -104 98 0 
98 -99 100 0 
98 -100 99 0 
100 -101 103 0 
100 -103 101 0 
101 102 0 
103 -88 -90 0 
104 -105 0 
104 -108 0 
105 -106 0 
105 -107 0 
106 -86 -87 0 
107 -87 -91 0 
108 -86 -91 0 
109 110 0 
110 -111 117 0 
110 -117 111 0 
111 -112 113 0 
111 -113 112 0 
113 -114 116 0 
113 -116 114 0 
114 115 0 
116 -101 -103 0 
117 -118 0 
117 -121 0 
118 -119 0 
118 -120 0 
119 -99 -100 0 
120 -100 -104 0 
121 -99 -104 0 
122 -123 -224 0 
123 -124 -211 0 
124 -125 -198 0 
125 -126 -185 0 
126 -127 -172 0 
10 -11 -20 0 
127 -128 -159 0 
128 -129 -146 0 
129 -130 -137 0 
130 131 0 
131 -132 0 
132 -133 134 0 
132 -134 133 0 
134 135 0 
135 136 0 
11 12 0 
137 138 0 
138 -139 145 0 
138 -145 139 0 
139 -140 141 0 
139 -141 140 0 
141 -142 144 0 
141 -144 142 0 
142 143 0 
144 -135 0 
145 -133 -134 0 
146 147 0 
12 -13 0 
147 -148 154 0 
147 -154 148 0 
148 -149 150 0 
148 -150 149 0 
150 -151 153 0 
150 -153 151 0 
151 152 0 
153 -142 -144 0 
154 -155 0 
154 -158 0 
155 -156 0 
155 -157 0 
156 -140 -141 0 
13 -14 17 0 
13 -17 14 0 
157 -141 -145 0 
158 -140 -145 0 
159 160 0 
160 -161 167 0 
160 -167 161 0 
161 -162 163 0 
161 -163 162 0 
163 -164 166 0 
163 -166 164 0 
164 165 0 
166 -151 -153 0 
14 15 0 
167 -168 0 
167 -171 0 
168 -169 0 
168 -170 0 
169 -149 -150 0 
170 -150 -154 0 
171 -149 -154 0 
172 173 0 
173 -174 180 0 
173 -180 174 0 
174 -175 176 0 
174 -176 175 0 
176 -177 179 0 
176 -179 177 0 
15 16 0 
177 178 0 
179 -164 -166 0 
180 -181 0 
180 -184 0 
181 -182 0 
181 -183 0 
182 -162 -163 0 
183 -163 -167 0 
184 -162 -167 0 
185 186 0 
186 -187 193 0 
186 -193 187 0 
187 -188 189 0 
187 -189 188 0 
189 -190 192 0 
189 -192 190 0 
190 191 0 
192 -177 -179 0 
193 -194 0 
193 -197 0 
194 -195 0 
194 -196 0 
195 -175 -176 0 
196 -176 -180 0 
1 2 0 
17 18 0 
197 -175 -180 0 
198 199 0 
199 -200 206 0 
199 -206 200 0 
200 -201 202 0 
200 -202 201 0 
202 -203 205 0 
202 -205 203 0 
203 204 0 
205 -190 -192 0 
206 -207 0 
206 -210 0 
18 19 0 
207 -208 0 
207 -209 0 
208 -188 -189 0 
209 -189 -193 0 
210 -188 -193 0 
211 212 0 
212 -213 219 0 
212 -219 213 0 
213 -214 215 0 
213 -215 214 0 
215 -216 218 0 
215 -218 216 0 
216 217 0 
218 -203 -205 0 
219 -220 0 
219 -223 0 
220 -221 0 
220 -222 0 
221 -201 -202 0 
222 -202 -206 0 
223 -201 -206 0 
224 -225 -226 0 
224 -226 -623 0 
224 225 -623 0 
225 17 0 
226 -227 -233 0 
226 -233 -428 0 
226 227 -428 0 
20 -21 -122 0 
227 228 0 
228 -229 0 
229 -230 7 0 
229 -7 230 0 
230 231 0 
231 232 0 
233 -234 -240 0 
234 235 0 
235 -236 0 
236 -17 237 0 
236 -237 17 0 
21 -22 -109 0 
237 238 0 
238 239 0 
240 -241 -334 0 
241 -242 -322 0 
242 -243 -310 0 
243 -244 -298 0 
244 -245 -286 0 
245 -246 -274 0 
246 -247 -262 0 
22 -23 -96 0 
247 -248 -254 0 
248 249 0 
249 -250 0 
250 -251 34 0 
250 -34 251 0 
251 252 0 
252 253 0 
254 255 0 
255 -256 261 0 
255 -261 256 0 
256 -257 41 0 
256 -41 257 0 
23 -24 -83 0 
257 -258 260 0 
257 -260 258 0 
258 259 0 
260 -252 0 
261 -34 -251 0 
262 263 0 
263 -264 269 0 
263 -269 264 0 
264 -265 50 0 
264 -50 265 0 
265 -266 268 0 
265 -268 266 0 
266 267 0 
24 -25 -70 0 
268 -258 -260 0 
269 -270 0 
269 -273 0 
270 -271 0 
270 -272 0 
271 -41 -257 0 
272 -257 -261 0 
273 -41 -261 0 
274 275 0 
275 -276 281 0 
275 -281 276 0 
276 -277 63 0 
276 -63 277 0 
25 -26 -57 0 
277 -278 280 0 
277 -280 278 0 
278 279 0 
280 -266 -268 0 
281 -282 0 
281 -285 0 
282 -283 0 
282 -284 0 
283 -50 -265 0 
284 -265 -269 0 
285 -50 -269 0 
286 287 0 
26 -27 -44 0 
287 -288 293 0 
287 -293 288 0 
288 -289 76 0 
288 -76 289 0 
289 -290 292 0 
289 -292 290 0 
290 291 0 
292 -278 -280 0 
293 -294 0 
293 -297 0 
294 -295 0 
294 -296 0 
295 -63 -277 0 
296 -277 -281 0 
2 -3 0 
27 -28 -35 0 
297 -63 -281 0 
298 299 0 
299 -300 305 0 
299 -305 300 0 
300 -301 89 0 
300 -89 301 0 
301 -302 304 0 
301 -304 302 0 
302 303 0 
304 -290 -292 0 
305 -306 0 
305 -309 0 
306 -307 0 
306 -308 0 
28 29 0 
307 -76 -289 0 
308 -289 -293 0 
309 -76 -293 0 
310 311 0 
311 -312 317 0 
311 -317 312 0 
312 -102 313 0 
312 -313 102 0 
313 -314 316 0 
313 -316 314 0 
314 315 0 
316 -302 -304 0 
29 -30 0 
317 -318 0 
317 -321 0 
318 -319 0 
318 -320 0 
319 -89 -301 0 
320 -301 -305 0 
321 -89 -305 0 
322 323 0 
323 -324 329 0 
323 -329 324 0 
324 -115 325 0 
324 -325 115 0 
325 -326 328 0 
325 -328 326 0 
326 327 0 
30 -31 32 0 
30 -32 31 0 
328 -314 -316 0 
329 -330 0 
329 -333 0 
330 -331 0 
330 -332 0 
331 -102 -313 0 
332 -313 -317 0 
333 -102 -317 0 
334 -335 0 
335 -336 -416 0 
336 -337 -404 0 
337 -338 -392 0 
338 -339 -380 0 
339 -340 -368 0 
340 -341 -356 0 
341 -342 -348 0 
342 343 0 
343 -344 0 
344 -136 345 0 
344 -345 136 0 
345 346 0 
346 347 0 
32 33 0 
348 349 0 
349 -350 355 0 
349 -355 350 0 
350 -143 351 0 
350 -351 143 0 
351 -352 354 0 
351 -354 352 0 
352 353 0 
354 -346 0 
355 -136 -345 0 
356 357 0 
33 34 0 
357 -358 363 0 
357 -363 358 0 
358 -152 359 0 
358 -359 152 0 
359 -360 362 0 
359 -362 360 0 
360 361 0 
362 -352 -354 0 
363 -364 0 
363 -367 0 
364 -365 0 
364 -366 0 
365 -143 -351 0 
366 -351 -355 0 
367 -143 -355 0 
368 369 0 
369 -370 375 0 
369 -375 370 0 
370 -165 371 0 
370 -371 165 0 
371 -372 374 0 
371 -374 372 0 
372 373 0 
374 -360 -362 0 
375 -376 0 
375 -379 0 
376 -377 0 
376 -378 0 
35 36 0 
377 -152 -359 0 
378 -359 -363 0 
379 -152 -363 0 
380 381 0 
381 -382 387 0 
381 -387 382 0 
382 -178 383 0 
382 -383 178 0 
383 -384 386 0 
383 -386 384 0 
384 385 0 
386 -372 -374 0 
36 -37 43 0 
36 -43 37 0 
387 -388 0 
387 -391 0 
388 -389 0 
388 -390 0 
389 -165 -371 0 
390 -371 -375 0 
391 -165 -375 0 
392 393 0 
393 -394 399 0 
393 -399 394 0 
394 -191 395 0 
394 -395 191 0 
395 -396 398 0 
395 -398 396 0 
396 397 0 
3 -4 7 0 
3 -7 4 0 
37 -38 39 0 
37 -39 38 0 
398 -384 -386 0 
399 -400 0 
399 -403 0 
400 -401 0 
400 -402 0 
401 -178 -383 0 
402 -383 -387 0 
403 -178 -387 0 
404 405 0 
405 -406 411 0 
405 -411 406 0 
406 -204 407 0 
406 -407 204 0 
407 -408 410 0 
407 -410 408 0 
408 409 0 
410 -396 -398 0 
411 -412 0 
411 -415 0 
412 -413 0 
412 -414 0 
413 -191 -395 0 
414 -395 -399 0 
415 -191 -399 0 
416 417 0 
39 -40 42 0 
39 -42 40 0 
417 -418 423 0 
417 -423 418 0 
418 -217 419 0 
418 -419 217 0 
419 -420 422 0 
419 -422 420 0 
420 421 0 
422 -408 -410 0 
423 -424 0 
423 -427 0 
424 -425 0 
424 -426 0 
425 -204 -407 0 
426 -407 -411 0 
40 41 0 
427 -204 -411 0 
428 -429 -430 0 
428 -430 -233 0 
428 429 -233 0 
429 -230 0 
430 -431 -446 0 
430 -446 -608 0 
430 431 -608 0 
431 -432 -445 0 
432 -433 -444 0 
433 -434 -443 0 
434 -435 -442 0 
435 -436 -441 0 
436 -437 -440 0 
437 -438 -439 0 
438 34 0 
439 41 0 
440 50 0 
441 63 0 
442 76 0 
443 89 0 
444 102 0 
445 115 0 
446 -447 -448 0 
42 -33 0 
447 -237 0 
448 -449 -464 0 
448 -464 -544 0 
448 449 -544 0 
449 -450 -463 0 
450 -451 -462 0 
451 -452 -461 0 
452 -453 -460 0 
453 -454 -459 0 
454 -455 -458 0 
455 -456 -457 0 
456 -34 0 
43 -31 -32 0 
457 -41 0 
458 -50 0 
459 -63 0 
460 -76 0 
461 -89 0 
462 -102 0 
463 -115 0 
464 -465 -535 0 
465 -466 -526 0 
466 -467 -517 0 
44 45 0 
467 -468 -508 0 
468 -469 -499 0 
469 -470 -490 0 
470 -471 -481 0 
471 -472 -476 0 
472 473 0 
473 -474 0 
474 -251 475 0 
474 -475 251 0 
476 477 0 
45 -46 52 0 
45 -52 46 0 
477 -478 480 0 
477 -480 478 0 
478 -257 479 0 
478 -479 257 0 
480 -475 -251 0 
481 482 0 
482 -483 485 0 
482 -485 483 0 
483 -265 484 0 
483 -484 265 0 
485 -486 0 
485 -489 0 
486 -487 0 
486 -488 0 
46 -47 48 0 
46 -48 47 0 
487 -479 -257 0 
488 -257 -480 0 
489 -479 -480 0 
490 491 0 
491 -492 494 0 
491 -494 492 0 
492 -277 493 0 
492 -493 277 0 
494 -495 0 
494 -498 0 
495 -496 0 
495 -497 0 
496 -484 -265 0 
4 5 0 
497 -265 -485 0 
498 -484 -485 0 
499 500 0 
500 -501 503 0 
500 -503 501 0 
501 -289 502 0 
501 -502 289 0 
503 -504 0 
503 -507 0 
504 -505 0 
504 -506 0 
505 -493 -277 0 
506 -277 -494 0 
48 -49 51 0 
48 -51 49 0 
507 -493 -494 0 
508 509 0 
509 -510 512 0 
509 -512 510 0 
510 -301 511 0 
510 -511 301 0 
512 -513 0 
512 -516 0 
513 -514 0 
513 -515 0 
514 -502 -289 0 
515 -289 -503 0 
516 -502 -503 0 
49 50 0 
517 518 0 
518 -519 521 0 
518 -521 519 0 
519 -313 520 0 
519 -520 313 0 
521 -522 0 
521 -525 0 
522 -523 0 
522 -524 0 
523 -511 -301 0 
524 -301 -512 0 
525 -511 -512 0 
526 527 0 
527 -528 530 0 
527 -530 528 0 
528 -325 529 0 
528 -529 325 0 
530 -531 0 
530 -534 0 
531 -532 0 
531 -533 0 
532 -520 -313 0 
533 -313 -521 0 
534 -520 -521 0 
535 -536 0 
536 -537 -416 0 
51 -40 -42 0 
537 -538 -404 0 
538 -539 -392 0 
539 -540 -380 0 
540 -541 -368 0 
541 -542 -356 0 
542 -543 -348 0 
543 -343 0 
544 -465 -545 0 
545 -546 0 
546 -547 -600 0 
52 -53 0 
52 -56 0 
547 -548 -592 0 
548 -549 -584 0 
549 -550 -576 0 
550 -551 -568 0 
551 -552 -560 0 
552 -553 -556 0 
553 -554 0 
554 -555 0 
555 -345 34 0 
555 -34 345 0 
556 -557 0 
53 -54 0 
53 -55 0 
557 -558 559 0 
557 -559 558 0 
558 -351 41 0 
558 -41 351 0 
559 -34 -345 0 
560 -561 0 
561 -562 563 0 
561 -563 562 0 
562 -359 50 0 
562 -50 359 0 
563 -564 0 
563 -567 0 
564 -565 0 
564 -566 0 
565 -41 -351 0 
566 -351 -559 0 
54 -38 -39 0 
567 -41 -559 0 
568 -569 0 
569 -570 571 0 
569 -571 570 0 
570 -371 63 0 
570 -63 371 0 
571 -572 0 
571 -575 0 
572 -573 0 
572 -574 0 
573 -50 -359 0 
574 -359 -563 0 
575 -50 -563 0 
576 -577 0 
55 -39 -43 0 
577 -578 579 0 
577 -579 578 0 
578 -383 76 0 
578 -76 383 0 
579 -580 0 
579 -583 0 
580 -581 0 
580 -582 0 
581 -63 -371 0 
582 -371 -571 0 
583 -63 -571 0 
584 -585 0 
585 -586 587 0 
585 -587 586 0 
586 -395 89 0 
586 -89 395 0 
56 -38 -43 0 
587 -588 0 
587 -591 0 
588 -589 0 
588 -590 0 
589 -76 -383 0 
590 -383 -579 0 
591 -76 -579 0 
592 -593 0 
593 -594 595 0 
593 -595 594 0 
594 -102 407 0 
594 -407 102 0 
595 -596 0 
595 -599 0 
596 -597 0 
596 -598 0 
5 6 0 
57 58 0 
597 -89 -395 0 
598 -395 -587 0 
599 -89 -587 0 
600 -601 0 
601 -602 603 0 
601 -603 602 0 
602 -115 419 0 
602 -419 115 0 
603 -604 0 
603 -607 0 
604 -605 0 
604 -606 0 
605 -102 -407 0 
606 -407 -595 0 
58 -59 65 0 
58 -65 59 0 
607 -102 -595 0 
608 -449 -609 0 
608 -609 -621 0 
608 449 -621 0 
609 -610 -618 0 
610 -611 -322 0 
611 -612 -310 0 
612 -613 -298 0 
613 -614 -286 0 
614 -615 -274 0 
615 -616 -262 0 
616 -617 -254 0 
59 -60 61 0 
59 -61 60 0 
617 -249 0 
618 -536 -619 0 
619 -620 0 
620 237 0 
621 -610 -622 0 
622 -546 -619 0 
623 -227 -233 0 
623 -233 -624 0 
623 227 -624 0 
624 -429 -625 0 
624 -625 -233 0 
624 429 -233 0 
625 -447 -626 0 
625 -626 -658 0 
625 447 -658 0 
626 -449 -627 0 
626 -627 -643 0 
626 449 -643 0 
627 -465 -628 0 
628 -629 -619 0 
629 -630 -642 0 
630 -631 -641 0 
631 -632 -640 0 
632 -633 -639 0 
633 -634 -638 0 
634 -635 -637 0 
635 -543 -636 0 
636 -349 0 
61 -62 64 0 
61 -64 62 0 
637 -357 0 
638 -369 0 
639 -381 0 
640 -393 0 
641 -405 0 
642 -417 0 
643 -644 -545 0 
644 -645 -657 0 
645 -646 -656 0 
646 -647 -655 0 
62 63 0 
647 -648 -654 0 
648 -649 -653 0 
649 -650 -652 0 
650 -617 -651 0 
651 -255 0 
652 -263 0 
653 -275 0 
654 -287 0 
655 -299 0 
656 -311 0 
657 -323 0 
658 -449 -627 0 
659 -660 -661 0 
659 -661 -10 0 
659 660 -10 0 
660 -7 0 
661 -662 -663 0 
661 -663 -855 0 
661 662 -855 0 
662 14 0 
663 -664 -679 0 
663 -679 -841 0 
663 664 -841 0 
664 -665 -678 0 
665 -666 -677 0 
666 -667 -676 0 
64 -49 -51 0 
667 -668 -675 0 
668 -669 -674 0 
669 -670 -673 0 
670 -671 -672 0 
671 31 0 
672 38 0 
673 47 0 
674 60 0 
675 73 0 
676 86 0 
65 -66 0 
65 -69 0 
677 99 0 
678 112 0 
679 -680 -681 0 
680 -17 0 
681 -682 -697 0 
681 -697 -777 0 
681 682 -777 0 
682 -683 -696 0 
683 -684 -695 0 
684 -685 -694 0 
685 -686 -693 0 
686 -687 -692 0 
66 -67 0 
66 -68 0 
687 -688 -691 0 
688 -689 -690 0 
689 -31 0 
690 -38 0 
691 -47 0 
692 -60 0 
693 -73 0 
694 -86 0 
695 -99 0 
696 -112 0 
67 -47 -48 0 
697 -698 -768 0 
698 -699 -759 0 
699 -700 -750 0 
700 -701 -741 0 
701 -702 -732 0 
702 -703 -723 0 
703 -704 -714 0 
704 -705 -709 0 
705 706 0 
706 -707 0 
68 -48 -52 0 
707 -32 708 0 
707 -708 32 0 
709 710 0 
710 -711 713 0 
710 -713 711 0 
711 -39 712 0 
711 -712 39 0 
713 -708 -32 0 
714 715 0 
715 -716 718 0 
715 -718 716 0 
716 -48 717 0 
716 -717 48 0 
69 -47 -52 0 
718 -719 0 
718 -722 0 
719 -720 0 
719 -721 0 
720 -712 -39 0 
721 -39 -713 0 
722 -712 -713 0 
723 724 0 
724 -725 727 0 
724 -727 725 0 
725 -61 726 0 
725 -726 61 0 
70 71 0 
727 -728 0 
727 -731 0 
728 -729 0 
728 -730 0 
729 -717 -48 0 
730 -48 -718 0 
731 -717 -718 0 
732 733 0 
733 -734 736 0 
733 -736 734 0 
734 -735 74 0 
734 -74 735 0 
736 -737 0 
736 -740 0 
71 -72 78 0 
71 -78 72 0 
737 -738 0 
737 -739 0 
738 -726 -61 0 
739 -61 -727 0 
740 -726 -727 0 
741 742 0 
742 -743 745 0 
742 -745 743 0 
743 -744 87 0 
743 -87 744 0 
745 -746 0 
745 -749 0 
746 -747 0 
746 -748 0 
72 -73 74 0 
72 -74 73 0 
747 -735 -74 0 
748 -74 -736 0 
749 -735 -736 0 
750 751 0 
751 -752 754 0 
751 -754 752 0 
752 -100 753 0 
752 -753 100 0 
754 -755 0 
754 -758 0 
755 -756 0 
755 -757 0 
756 -744 -87 0 
757 -87 -745 0 
758 -744 -745 0 
759 760 0 
760 -761 763 0 
760 -763 761 0 
761 -113 762 0 
761 -762 113 0 
763 -764 0 
763 -767 0 
764 -765 0 
764 -766 0 
765 -753 -100 0 
766 -100 -754 0 
74 -75 77 0 
74 -77 75 0 
767 -753 -754 0 
768 -769 -224 0 
769 -770 -211 0 
770 -771 -198 0 
771 -772 -185 0 
772 -773 -172 0 
773 -774 -159 0 
774 -775 -146 0 
775 -776 -137 0 
776 -131 0 
75 76 0 
777 -698 -778 0 
778 -779 -224 0 
779 -780 -833 0 
780 -781 -825 0 
781 -782 -817 0 
782 -783 -809 0 
783 -784 -801 0 
784 -785 -793 0 
785 -786 -789 0 
786 -787 0 
787 -788 0 
788 -134 31 0 
788 -31 134 0 
789 -790 0 
790 -791 792 0 
790 -792 791 0 
791 -141 38 0 
791 -38 141 0 
792 -31 -134 0 
793 -794 0 
794 -795 796 0 
794 -796 795 0 
795 -150 47 0 
795 -47 150 0 
796 -797 0 
796 -800 0 
77 -62 -64 0 
797 -798 0 
797 -799 0 
798 -38 -141 0 
799 -141 -792 0 
800 -38 -792 0 
801 -802 0 
802 -803 804 0 
802 -804 803 0 
803 -163 60 0 
803 -60 163 0 
804 -805 0 
804 -808 0 
805 -806 0 
805 -807 0 
806 -47 -150 0 
78 -79 0 
78 -82 0 
807 -150 -796 0 
808 -47 -796 0 
809 -810 0 
810 -811 812 0 
810 -812 811 0 
811 -176 73 0 
811 -73 176 0 
812 -813 0 
812 -816 0 
813 -814 0 
813 -815 0 
814 -60 -163 0 
815 -163 -804 0 
816 -60 -804 0 
79 -80 0 
79 -81 0 
817 -818 0 
818 -819 820 0 
818 -820 819 0 
819 -189 86 0 
819 -86 189 0 
820 -821 0 
820 -824 0 
821 -822 0 
821 -823 0 
822 -73 -176 0 
823 -176 -812 0 
824 -73 -812 0 
825 -826 0 
826 -827 828 0 
826 -828 827 0 
80 -60 -61 0 
827 -99 202 0 
827 -202 99 0 
828 -829 0 
828 -832 0 
829 -830 0 
829 -831 0 
830 -86 -189 0 
831 -189 -820 0 
832 -86 -820 0 
833 -834 0 
834 -835 836 0 
834 -836 835 0 
835 -112 215 0 
835 -215 112 0 
836 -837 0 
836 -840 0 
81 -61 -65 0 
837 -838 0 
837 -839 0 
838 -99 -202 0 
839 -202 -828 0 
840 -99 -828 0 
841 -682 -842 0 
841 -842 -853 0 
841 682 -853 0 
842 -843 -851 0 
843 -844 -109 0 
844 -845 -96 0 
845 -846 -83 0 
846 -847 -70 0 
82 -60 -65 0 
847 -848 -57 0 
848 -849 -44 0 
849 -850 -35 0 
850 -29 0 
851 -769 -852 0 
852 -225 -226 0 
853 -843 -854 0 
854 -779 -852 0 
855 -680 -856 0 
855 -856 -888 0 
855 680 -888 0 
856 -682 -857 0 
856 -857 -873 0 
856 682 -873 0 
83 84 0 
857 -698 -858 0 
858 -859 -852 0 
859 -860 -872 0 
860 -861 -871 0 
861 -862 -870 0 
862 -863 -869 0 
863 -864 -868 0 
864 -865 -867 0 
865 -776 -866 0 
866 -138 0 
84 -85 91 0 
84 -91 85 0 
867 -147 0 
868 -160 0 
869 -173 0 
870 -186 0 
871 -199 0 
872 -212 0 
873 -874 -778 0 
874 -875 -887 0 
875 -876 -886 0 
876 -877 -885 0 
85 -86 87 0 
85 -87 86 0 
877 -878 -884 0 
878 -879 -883 0 
879 -880 -882 0 
880 -850 -881 0 
881 -36 0 
882 -45 0 
883 -58 0 
884 -71 0 
885 -84 0 
886 -97 0 
887 -110 0 
888 -682 -857 0 
7 8 0 
87 -88 90 0 
87 -90 88 0 
88 89 0 
90 -75 -77 0 
91 -92 0 
91 -95 0 
92 -93 0 
92 -94 0 
93 -73 -74 0 
94 -74 -78 0 
95 -73 -78 0 
96 97 0 
